(set-logic QF_LIA)
(declare-fun x0 () Int)
(declare-fun x1 () Int)
(declare-fun x2 () Int)
(declare-fun x3 () Int)
(declare-fun x4 () Int)
(declare-fun x5 () Int)
(declare-fun x6 () Int)
(declare-fun x7 () Int)
(declare-fun x8 () Int)
(declare-fun x9 () Int)
(declare-fun A0 () Bool)
(declare-fun A1 () Bool)
(declare-fun A2 () Bool)
(declare-fun A3 () Bool)
(declare-fun A4 () Bool)
(declare-fun A5 () Bool)
(declare-fun A6 () Bool)
(declare-fun A7 () Bool)
(declare-fun A8 () Bool)
(declare-fun A9 () Bool)
(assert (let ((.def_0 (not A7))) (let ((.def_1 (or A2 .def_0))) (let ((.def_2 (not .def_1))) (let ((.def_3 (not A2))) (let ((.def_4 (* (- 1) x0))) (let ((.def_5 (* 1 x5))) (let ((.def_6 (+ .def_5 .def_4))) (let ((.def_7 (< .def_6 1))) (let ((.def_8 (not .def_7))) (let ((.def_9 (and .def_8 .def_3))) (let ((.def_10 (not .def_9))) (let ((.def_11 (or .def_10 .def_2))) (let ((.def_12 (not A3))) (let ((.def_13 (and .def_12 A8))) (let ((.def_14 (not A6))) (let ((.def_15 (and .def_14 A6))) (let ((.def_16 (not .def_15))) (let ((.def_17 (and .def_16 .def_13))) (let ((.def_18 (not .def_17))) (let ((.def_19 (and .def_18 .def_11))) (let ((.def_20 (and .def_0 .def_12))) (let ((.def_21 (not .def_20))) (let ((.def_22 (not A9))) (let ((.def_23 (or A3 .def_22))) (let ((.def_24 (or .def_23 .def_21))) (let ((.def_25 (not .def_24))) (let ((.def_26 (* 1 x3))) (let ((.def_27 (* 1 x2))) (let ((.def_28 (+ .def_27 .def_26))) (let ((.def_29 (< .def_28 (- 1)))) (let ((.def_30 (not .def_29))) (let ((.def_31 (and A1 .def_30))) (let ((.def_32 (* (- 1) x4))) (let ((.def_33 (* 1 x1))) (let ((.def_34 (+ .def_33 .def_32))) (let ((.def_35 (< .def_34 (- 1)))) (let ((.def_36 (not .def_35))) (let ((.def_37 (not A1))) (let ((.def_38 (or .def_37 .def_36))) (let ((.def_39 (and .def_38 .def_31))) (let ((.def_40 (or .def_39 .def_25))) (let ((.def_41 (and .def_40 .def_19))) (let ((.def_42 (* 1 x0))) (let ((.def_43 (* (- 1) x5))) (let ((.def_44 (+ .def_43 .def_42))) (let ((.def_45 (< .def_44 (- 1)))) (let ((.def_46 (not .def_45))) (let ((.def_47 (and .def_46 .def_0))) (let ((.def_48 (not .def_47))) (let ((.def_49 (* 1 x9))) (let ((.def_50 (+ .def_49 .def_26))) (let ((.def_51 (< .def_50 1))) (let ((.def_52 (not .def_51))) (let ((.def_53 (and A9 .def_52))) (let ((.def_54 (or .def_53 .def_48))) (let ((.def_55 (or .def_0 .def_37))) (let ((.def_56 (* 1 x8))) (let ((.def_57 (+ .def_56 .def_42))) (let ((.def_58 (< .def_57 1))) (let ((.def_59 (* (- 1) x9))) (let ((.def_60 (+ .def_42 .def_59))) (let ((.def_61 (< .def_60 1))) (let ((.def_62 (and .def_61 .def_58))) (let ((.def_63 (not .def_62))) (let ((.def_64 (and .def_63 .def_55))) (let ((.def_65 (not .def_64))) (let ((.def_66 (and .def_65 .def_54))) (let ((.def_67 (not .def_66))) (let ((.def_68 (* (- 1) x2))) (let ((.def_69 (+ .def_43 .def_68))) (let ((.def_70 (< .def_69 (- 1)))) (let ((.def_71 (not .def_70))) (let ((.def_72 (or A1 .def_71))) (let ((.def_73 (not .def_72))) (let ((.def_74 (and .def_37 A6))) (let ((.def_75 (or .def_74 .def_73))) (let ((.def_76 (not .def_75))) (let ((.def_77 (* (- 1) x3))) (let ((.def_78 (< .def_77 (- 1)))) (let ((.def_79 (not .def_78))) (let ((.def_80 (or A9 .def_79))) (let ((.def_81 (not A4))) (let ((.def_82 (* (- 1) x7))) (let ((.def_83 (+ .def_43 .def_82))) (let ((.def_84 (< .def_83 (- 1)))) (let ((.def_85 (and .def_84 .def_81))) (let ((.def_86 (not .def_85))) (let ((.def_87 (or .def_86 .def_80))) (let ((.def_88 (not .def_87))) (let ((.def_89 (or .def_88 .def_76))) (let ((.def_90 (not .def_89))) (let ((.def_91 (or .def_90 .def_67))) (let ((.def_92 (not .def_91))) (let ((.def_93 (and .def_92 .def_41))) (let ((.def_94 (not .def_93))) (let ((.def_95 (* (- 1) x1))) (let ((.def_96 (+ .def_43 .def_95))) (let ((.def_97 (< .def_96 (- 1)))) (let ((.def_98 (not .def_97))) (let ((.def_99 (and .def_98 A0))) (let ((.def_100 (or A9 A8))) (let ((.def_101 (and .def_100 .def_99))) (let ((.def_102 (not .def_101))) (let ((.def_103 (not A5))) (let ((.def_104 (or .def_103 .def_22))) (let ((.def_105 (not .def_104))) (let ((.def_106 (< .def_43 1))) (let ((.def_107 (or A9 .def_106))) (let ((.def_108 (not .def_107))) (let ((.def_109 (or .def_108 .def_105))) (let ((.def_110 (not .def_109))) (let ((.def_111 (and .def_110 .def_102))) (let ((.def_112 (+ .def_49 .def_68))) (let ((.def_113 (< .def_112 (- 1)))) (let ((.def_114 (< .def_95 (- 1)))) (let ((.def_115 (not .def_114))) (let ((.def_116 (or .def_115 .def_113))) (let ((.def_117 (+ .def_5 .def_82))) (let ((.def_118 (< .def_117 1))) (let ((.def_119 (or .def_118 .def_103))) (let ((.def_120 (or .def_119 .def_116))) (let ((.def_121 (* 1 x7))) (let ((.def_122 (+ .def_121 .def_32))) (let ((.def_123 (< .def_122 (- 1)))) (let ((.def_124 (or .def_3 .def_123))) (let ((.def_125 (+ .def_77 .def_43))) (let ((.def_126 (< .def_125 1))) (let ((.def_127 (not .def_126))) (let ((.def_128 (< .def_27 1))) (let ((.def_129 (or .def_128 .def_127))) (let ((.def_130 (not .def_129))) (let ((.def_131 (and .def_130 .def_124))) (let ((.def_132 (or .def_131 .def_120))) (let ((.def_133 (or .def_132 .def_111))) (let ((.def_134 (+ .def_42 .def_68))) (let ((.def_135 (< .def_134 1))) (let ((.def_136 (< .def_32 1))) (let ((.def_137 (not .def_136))) (let ((.def_138 (and .def_137 .def_135))) (let ((.def_139 (or A8 .def_14))) (let ((.def_140 (or .def_139 .def_138))) (let ((.def_141 (or A2 A9))) (let ((.def_142 (not .def_141))) (let ((.def_143 (or .def_78 .def_3))) (let ((.def_144 (not .def_143))) (let ((.def_145 (and .def_144 .def_142))) (let ((.def_146 (or .def_145 .def_140))) (let ((.def_147 (= .def_3 .def_22))) (let ((.def_148 (not .def_147))) (let ((.def_149 (< .def_4 1))) (let ((.def_150 (* (- 1) x8))) (let ((.def_151 (+ .def_43 .def_150))) (let ((.def_152 (< .def_151 (- 1)))) (let ((.def_153 (not .def_152))) (let ((.def_154 (or .def_153 .def_149))) (let ((.def_155 (not .def_154))) (let ((.def_156 (= .def_155 .def_148))) (let ((.def_157 (not .def_156))) (let ((.def_158 (* (- 1) x6))) (let ((.def_159 (< .def_158 1))) (let ((.def_160 (not .def_159))) (let ((.def_161 (not A8))) (let ((.def_162 (or .def_161 .def_160))) (let ((.def_163 (not .def_162))) (let ((.def_164 (and A5 .def_160))) (let ((.def_165 (not .def_164))) (let ((.def_166 (or .def_165 .def_163))) (let ((.def_167 (not .def_166))) (let ((.def_168 (and .def_167 .def_157))) (let ((.def_169 (or .def_168 .def_146))) (let ((.def_170 (not .def_169))) (let ((.def_171 (or .def_170 .def_133))) (let ((.def_172 (or .def_171 .def_94))) (let ((.def_173 (not .def_172))) (let ((.def_174 (* 1 x4))) (let ((.def_175 (< .def_174 (- 1)))) (let ((.def_176 (not .def_175))) (let ((.def_177 (+ .def_158 .def_5))) (let ((.def_178 (< .def_177 1))) (let ((.def_179 (not .def_178))) (let ((.def_180 (or .def_179 .def_176))) (let ((.def_181 (or A8 A8))) (let ((.def_182 (or .def_181 .def_180))) (let ((.def_183 (+ .def_77 .def_158))) (let ((.def_184 (< .def_183 1))) (let ((.def_185 (or .def_184 .def_3))) (let ((.def_186 (+ .def_56 .def_43))) (let ((.def_187 (< .def_186 1))) (let ((.def_188 (not .def_187))) (let ((.def_189 (not A0))) (let ((.def_190 (= .def_189 .def_188))) (let ((.def_191 (not .def_190))) (let ((.def_192 (and .def_191 .def_185))) (let ((.def_193 (not .def_192))) (let ((.def_194 (and .def_193 .def_182))) (let ((.def_195 (not .def_194))) (let ((.def_196 (+ .def_59 .def_27))) (let ((.def_197 (< .def_196 (- 1)))) (let ((.def_198 (+ .def_77 .def_150))) (let ((.def_199 (< .def_198 1))) (let ((.def_200 (or .def_199 .def_197))) (let ((.def_201 (not .def_200))) (let ((.def_202 (not .def_184))) (let ((.def_203 (or .def_202 .def_3))) (let ((.def_204 (= .def_203 .def_201))) (let ((.def_205 (not .def_204))) (let ((.def_206 (+ .def_158 .def_174))) (let ((.def_207 (< .def_206 1))) (let ((.def_208 (not .def_207))) (let ((.def_209 (< .def_26 (- 1)))) (let ((.def_210 (and .def_209 .def_208))) (let ((.def_211 (and .def_103 A6))) (let ((.def_212 (= .def_211 .def_210))) (let ((.def_213 (not .def_212))) (let ((.def_214 (or .def_213 .def_205))) (let ((.def_215 (not .def_214))) (let ((.def_216 (= .def_215 .def_195))) (let ((.def_217 (< .def_158 (- 1)))) (let ((.def_218 (not .def_217))) (let ((.def_219 (or .def_218 .def_189))) (let ((.def_220 (< .def_42 1))) (let ((.def_221 (not .def_220))) (let ((.def_222 (or A2 .def_221))) (let ((.def_223 (and .def_222 .def_219))) (let ((.def_224 (not .def_223))) (let ((.def_225 (+ .def_68 .def_121))) (let ((.def_226 (< .def_225 (- 1)))) (let ((.def_227 (or A3 .def_226))) (let ((.def_228 (not .def_227))) (let ((.def_229 (* 1 x6))) (let ((.def_230 (+ .def_229 .def_27))) (let ((.def_231 (< .def_230 1))) (let ((.def_232 (+ .def_26 .def_5))) (let ((.def_233 (< .def_232 1))) (let ((.def_234 (or .def_233 .def_231))) (let ((.def_235 (not .def_234))) (let ((.def_236 (or .def_235 .def_228))) (let ((.def_237 (not .def_236))) (let ((.def_238 (or .def_237 .def_224))) (let ((.def_239 (not .def_238))) (let ((.def_240 (+ .def_174 .def_43))) (let ((.def_241 (< .def_240 (- 1)))) (let ((.def_242 (not .def_241))) (let ((.def_243 (and .def_242 A4))) (let ((.def_244 (not .def_243))) (let ((.def_245 (+ .def_42 .def_26))) (let ((.def_246 (< .def_245 (- 1)))) (let ((.def_247 (and .def_79 .def_246))) (let ((.def_248 (not .def_247))) (let ((.def_249 (or .def_248 .def_244))) (let ((.def_250 (not .def_249))) (let ((.def_251 (= .def_22 .def_37))) (let ((.def_252 (< .def_229 1))) (let ((.def_253 (not .def_252))) (let ((.def_254 (and .def_253 A4))) (let ((.def_255 (not .def_254))) (let ((.def_256 (or .def_255 .def_251))) (let ((.def_257 (= .def_256 .def_250))) (let ((.def_258 (not .def_257))) (let ((.def_259 (or .def_258 .def_239))) (let ((.def_260 (not .def_259))) (let ((.def_261 (and .def_260 .def_216))) (let ((.def_262 (not .def_261))) (let ((.def_263 (+ .def_150 .def_43))) (let ((.def_264 (< .def_263 1))) (let ((.def_265 (+ .def_26 .def_82))) (let ((.def_266 (< .def_265 (- 1)))) (let ((.def_267 (not .def_266))) (let ((.def_268 (and .def_267 .def_264))) (let ((.def_269 (not .def_268))) (let ((.def_270 (+ .def_49 .def_5))) (let ((.def_271 (< .def_270 (- 1)))) (let ((.def_272 (not .def_271))) (let ((.def_273 (< .def_82 (- 1)))) (let ((.def_274 (= .def_273 .def_272))) (let ((.def_275 (and .def_274 .def_269))) (let ((.def_276 (not .def_275))) (let ((.def_277 (< .def_77 1))) (let ((.def_278 (not .def_277))) (let ((.def_279 (and .def_278 A0))) (let ((.def_280 (< .def_33 1))) (let ((.def_281 (not .def_280))) (let ((.def_282 (or A6 .def_281))) (let ((.def_283 (and .def_282 .def_279))) (let ((.def_284 (not .def_283))) (let ((.def_285 (and .def_284 .def_276))) (let ((.def_286 (not .def_285))) (let ((.def_287 (and .def_81 A2))) (let ((.def_288 (not .def_287))) (let ((.def_289 (< .def_26 1))) (let ((.def_290 (not .def_289))) (let ((.def_291 (or .def_290 .def_189))) (let ((.def_292 (not .def_291))) (let ((.def_293 (or .def_292 .def_288))) (let ((.def_294 (+ .def_5 .def_33))) (let ((.def_295 (< .def_294 (- 1)))) (let ((.def_296 (not .def_295))) (let ((.def_297 (or .def_296 A8))) (let ((.def_298 (< .def_150 1))) (let ((.def_299 (or .def_298 .def_30))) (let ((.def_300 (or .def_299 .def_297))) (let ((.def_301 (not .def_300))) (let ((.def_302 (or .def_301 .def_293))) (let ((.def_303 (not .def_302))) (let ((.def_304 (or .def_303 .def_286))) (let ((.def_305 (< .def_59 (- 1)))) (let ((.def_306 (not .def_305))) (let ((.def_307 (or A0 .def_306))) (let ((.def_308 (not .def_307))) (let ((.def_309 (< .def_49 1))) (let ((.def_310 (not .def_309))) (let ((.def_311 (or .def_310 A0))) (let ((.def_312 (not .def_311))) (let ((.def_313 (or .def_312 .def_308))) (let ((.def_314 (not .def_313))) (let ((.def_315 (+ .def_229 .def_32))) (let ((.def_316 (< .def_315 (- 1)))) (let ((.def_317 (or .def_316 .def_306))) (let ((.def_318 (+ .def_68 .def_4))) (let ((.def_319 (< .def_318 (- 1)))) (let ((.def_320 (not .def_319))) (let ((.def_321 (or .def_12 .def_320))) (let ((.def_322 (not .def_321))) (let ((.def_323 (= .def_322 .def_317))) (let ((.def_324 (and .def_323 .def_314))) (let ((.def_325 (+ .def_95 .def_5))) (let ((.def_326 (< .def_325 1))) (let ((.def_327 (not .def_326))) (let ((.def_328 (or A7 .def_327))) (let ((.def_329 (not .def_328))) (let ((.def_330 (+ .def_56 .def_59))) (let ((.def_331 (< .def_330 (- 1)))) (let ((.def_332 (not .def_331))) (let ((.def_333 (and .def_332 .def_277))) (let ((.def_334 (or .def_333 .def_329))) (let ((.def_335 (not .def_334))) (let ((.def_336 (+ .def_27 .def_49))) (let ((.def_337 (< .def_336 1))) (let ((.def_338 (not .def_337))) (let ((.def_339 (< .def_59 1))) (let ((.def_340 (not .def_339))) (let ((.def_341 (and .def_340 .def_338))) (let ((.def_342 (+ .def_27 .def_59))) (let ((.def_343 (< .def_342 1))) (let ((.def_344 (and .def_176 .def_343))) (let ((.def_345 (not .def_344))) (let ((.def_346 (or .def_345 .def_341))) (let ((.def_347 (and .def_346 .def_335))) (let ((.def_348 (or .def_347 .def_324))) (let ((.def_349 (not .def_348))) (let ((.def_350 (or .def_349 .def_304))) (let ((.def_351 (not .def_350))) (let ((.def_352 (and .def_351 .def_262))) (let ((.def_353 (or .def_352 .def_173))) (let ((.def_354 (not .def_353))) (let ((.def_355 (+ .def_68 .def_33))) (let ((.def_356 (< .def_355 1))) (let ((.def_357 (and .def_12 .def_356))) (let ((.def_358 (< .def_49 (- 1)))) (let ((.def_359 (+ .def_32 .def_56))) (let ((.def_360 (< .def_359 1))) (let ((.def_361 (not .def_360))) (let ((.def_362 (= .def_361 .def_358))) (let ((.def_363 (or .def_362 .def_357))) (let ((.def_364 (or .def_189 .def_161))) (let ((.def_365 (+ .def_56 .def_77))) (let ((.def_366 (< .def_365 (- 1)))) (let ((.def_367 (not .def_366))) (let ((.def_368 (or .def_367 A7))) (let ((.def_369 (and .def_368 .def_364))) (let ((.def_370 (= .def_369 .def_363))) (let ((.def_371 (< .def_121 1))) (let ((.def_372 (and .def_371 .def_14))) (let ((.def_373 (not .def_372))) (let ((.def_374 (and .def_3 .def_14))) (let ((.def_375 (not .def_374))) (let ((.def_376 (= .def_375 .def_373))) (let ((.def_377 (not .def_376))) (let ((.def_378 (and .def_81 A6))) (let ((.def_379 (+ .def_95 .def_82))) (let ((.def_380 (< .def_379 1))) (let ((.def_381 (+ .def_26 .def_49))) (let ((.def_382 (< .def_381 (- 1)))) (let ((.def_383 (= .def_382 .def_380))) (let ((.def_384 (not .def_383))) (let ((.def_385 (and .def_384 .def_378))) (let ((.def_386 (and .def_385 .def_377))) (let ((.def_387 (or .def_386 .def_370))) (let ((.def_388 (and .def_0 A6))) (let ((.def_389 (< .def_27 (- 1)))) (let ((.def_390 (not .def_389))) (let ((.def_391 (and .def_390 A8))) (let ((.def_392 (not .def_391))) (let ((.def_393 (and .def_392 .def_388))) (let ((.def_394 (not .def_393))) (let ((.def_395 (< .def_95 1))) (let ((.def_396 (not .def_395))) (let ((.def_397 (and .def_396 .def_390))) (let ((.def_398 (not .def_397))) (let ((.def_399 (< .def_56 (- 1)))) (let ((.def_400 (+ .def_33 .def_27))) (let ((.def_401 (< .def_400 1))) (let ((.def_402 (not .def_401))) (let ((.def_403 (and .def_402 .def_399))) (let ((.def_404 (not .def_403))) (let ((.def_405 (or .def_404 .def_398))) (let ((.def_406 (not .def_405))) (let ((.def_407 (= .def_406 .def_394))) (let ((.def_408 (+ .def_82 .def_229))) (let ((.def_409 (< .def_408 1))) (let ((.def_410 (not .def_409))) (let ((.def_411 (and A0 .def_410))) (let ((.def_412 (not .def_411))) (let ((.def_413 (or .def_0 .def_161))) (let ((.def_414 (not .def_413))) (let ((.def_415 (and .def_414 .def_412))) (let ((.def_416 (+ .def_229 .def_49))) (let ((.def_417 (< .def_416 (- 1)))) (let ((.def_418 (or .def_417 .def_310))) (let ((.def_419 (+ .def_77 .def_4))) (let ((.def_420 (< .def_419 (- 1)))) (let ((.def_421 (and .def_309 .def_420))) (let ((.def_422 (or .def_421 .def_418))) (let ((.def_423 (or .def_422 .def_415))) (let ((.def_424 (and .def_423 .def_407))) (let ((.def_425 (not .def_424))) (let ((.def_426 (and .def_425 .def_387))) (let ((.def_427 (+ .def_150 .def_121))) (let ((.def_428 (< .def_427 (- 1)))) (let ((.def_429 (or .def_428 .def_12))) (let ((.def_430 (not .def_429))) (let ((.def_431 (< .def_68 (- 1)))) (let ((.def_432 (not .def_431))) (let ((.def_433 (and .def_339 .def_432))) (let ((.def_434 (and .def_433 .def_430))) (let ((.def_435 (not .def_434))) (let ((.def_436 (and A9 A7))) (let ((.def_437 (not .def_436))) (let ((.def_438 (< .def_32 (- 1)))) (let ((.def_439 (not .def_438))) (let ((.def_440 (or .def_439 A7))) (let ((.def_441 (not .def_440))) (let ((.def_442 (or .def_441 .def_437))) (let ((.def_443 (not .def_442))) (let ((.def_444 (and .def_443 .def_435))) (let ((.def_445 (not .def_444))) (let ((.def_446 (or .def_432 A5))) (let ((.def_447 (not .def_446))) (let ((.def_448 (+ .def_82 .def_32))) (let ((.def_449 (< .def_448 (- 1)))) (let ((.def_450 (not .def_449))) (let ((.def_451 (or .def_450 .def_37))) (let ((.def_452 (not .def_451))) (let ((.def_453 (or .def_452 .def_447))) (let ((.def_454 (+ .def_121 .def_68))) (let ((.def_455 (< .def_454 (- 1)))) (let ((.def_456 (not .def_455))) (let ((.def_457 (= .def_456 A2))) (let ((.def_458 (and .def_3 A6))) (let ((.def_459 (or .def_458 .def_457))) (let ((.def_460 (not .def_459))) (let ((.def_461 (and .def_460 .def_453))) (let ((.def_462 (not .def_461))) (let ((.def_463 (and .def_462 .def_445))) (let ((.def_464 (< .def_33 (- 1)))) (let ((.def_465 (not .def_464))) (let ((.def_466 (= A2 .def_465))) (let ((.def_467 (not .def_466))) (let ((.def_468 (not .def_58))) (let ((.def_469 (or .def_468 .def_305))) (let ((.def_470 (and .def_469 .def_467))) (let ((.def_471 (not .def_470))) (let ((.def_472 (= .def_22 A4))) (let ((.def_473 (and .def_189 .def_202))) (let ((.def_474 (not .def_473))) (let ((.def_475 (and .def_474 .def_472))) (let ((.def_476 (and .def_475 .def_471))) (let ((.def_477 (not .def_476))) (let ((.def_478 (not .def_399))) (let ((.def_479 (or .def_12 .def_478))) (let ((.def_480 (< .def_174 1))) (let ((.def_481 (or .def_480 .def_298))) (let ((.def_482 (and .def_481 .def_479))) (let ((.def_483 (not .def_482))) (let ((.def_484 (or .def_3 .def_0))) (let ((.def_485 (+ .def_59 .def_174))) (let ((.def_486 (< .def_485 (- 1)))) (let ((.def_487 (not .def_486))) (let ((.def_488 (and A5 .def_487))) (let ((.def_489 (or .def_488 .def_484))) (let ((.def_490 (not .def_489))) (let ((.def_491 (or .def_490 .def_483))) (let ((.def_492 (not .def_491))) (let ((.def_493 (or .def_492 .def_477))) (let ((.def_494 (and .def_493 .def_463))) (let ((.def_495 (or .def_494 .def_426))) (let ((.def_496 (not .def_495))) (let ((.def_497 (or A0 .def_37))) (let ((.def_498 (not .def_497))) (let ((.def_499 (or .def_480 .def_128))) (let ((.def_500 (= .def_499 .def_498))) (let ((.def_501 (not .def_500))) (let ((.def_502 (or .def_37 A8))) (let ((.def_503 (not .def_502))) (let ((.def_504 (< .def_121 (- 1)))) (let ((.def_505 (not .def_504))) (let ((.def_506 (= .def_189 .def_505))) (let ((.def_507 (not .def_506))) (let ((.def_508 (and .def_507 .def_503))) (let ((.def_509 (or .def_508 .def_501))) (let ((.def_510 (+ .def_32 .def_59))) (let ((.def_511 (< .def_510 1))) (let ((.def_512 (+ .def_95 .def_4))) (let ((.def_513 (< .def_512 (- 1)))) (let ((.def_514 (not .def_513))) (let ((.def_515 (and .def_514 .def_511))) (let ((.def_516 (not .def_515))) (let ((.def_517 (< .def_229 (- 1)))) (let ((.def_518 (= .def_209 .def_517))) (let ((.def_519 (not .def_518))) (let ((.def_520 (= .def_519 .def_516))) (let ((.def_521 (+ .def_42 .def_27))) (let ((.def_522 (< .def_521 1))) (let ((.def_523 (not .def_522))) (let ((.def_524 (or .def_523 A2))) (let ((.def_525 (and .def_298 .def_103))) (let ((.def_526 (or .def_525 .def_524))) (let ((.def_527 (or .def_526 .def_520))) (let ((.def_528 (and .def_527 .def_509))) (let ((.def_529 (not .def_528))) (let ((.def_530 (+ .def_95 .def_150))) (let ((.def_531 (< .def_530 1))) (let ((.def_532 (or .def_531 A6))) (let ((.def_533 (not .def_532))) (let ((.def_534 (+ .def_5 .def_77))) (let ((.def_535 (< .def_534 (- 1)))) (let ((.def_536 (not .def_535))) (let ((.def_537 (+ .def_5 .def_68))) (let ((.def_538 (< .def_537 (- 1)))) (let ((.def_539 (not .def_538))) (let ((.def_540 (or .def_539 .def_536))) (let ((.def_541 (not .def_540))) (let ((.def_542 (or .def_541 .def_533))) (let ((.def_543 (not .def_542))) (let ((.def_544 (= .def_37 A2))) (let ((.def_545 (+ .def_5 .def_42))) (let ((.def_546 (< .def_545 1))) (let ((.def_547 (or .def_340 .def_546))) (let ((.def_548 (not .def_547))) (let ((.def_549 (and .def_548 .def_544))) (let ((.def_550 (or .def_549 .def_543))) (let ((.def_551 (or .def_432 .def_78))) (let ((.def_552 (not .def_551))) (let ((.def_553 (< .def_43 (- 1)))) (let ((.def_554 (not .def_553))) (let ((.def_555 (or .def_554 .def_189))) (let ((.def_556 (not .def_555))) (let ((.def_557 (or .def_556 .def_552))) (let ((.def_558 (and .def_0 .def_343))) (let ((.def_559 (not .def_558))) (let ((.def_560 (+ .def_229 .def_42))) (let ((.def_561 (< .def_560 1))) (let ((.def_562 (not .def_561))) (let ((.def_563 (and .def_103 .def_562))) (let ((.def_564 (not .def_563))) (let ((.def_565 (or .def_564 .def_559))) (let ((.def_566 (and .def_565 .def_557))) (let ((.def_567 (not .def_566))) (let ((.def_568 (= .def_567 .def_550))) (let ((.def_569 (not .def_568))) (let ((.def_570 (or .def_569 .def_529))) (let ((.def_571 (not .def_570))) (let ((.def_572 (not .def_209))) (let ((.def_573 (+ .def_68 .def_174))) (let ((.def_574 (< .def_573 (- 1)))) (let ((.def_575 (and .def_574 .def_572))) (let ((.def_576 (not .def_575))) (let ((.def_577 (+ .def_121 .def_4))) (let ((.def_578 (< .def_577 1))) (let ((.def_579 (not .def_578))) (let ((.def_580 (or .def_14 .def_579))) (let ((.def_581 (or .def_580 .def_576))) (let ((.def_582 (not .def_581))) (let ((.def_583 (= .def_3 A6))) (let ((.def_584 (not .def_583))) (let ((.def_585 (or A4 .def_396))) (let ((.def_586 (or .def_585 .def_584))) (let ((.def_587 (or .def_586 .def_582))) (let ((.def_588 (and .def_298 .def_432))) (let ((.def_589 (+ .def_121 .def_150))) (let ((.def_590 (< .def_589 1))) (let ((.def_591 (and .def_590 .def_306))) (let ((.def_592 (or .def_591 .def_588))) (let ((.def_593 (+ .def_26 .def_42))) (let ((.def_594 (< .def_593 (- 1)))) (let ((.def_595 (and .def_594 .def_37))) (let ((.def_596 (+ .def_150 .def_95))) (let ((.def_597 (< .def_596 (- 1)))) (let ((.def_598 (not .def_597))) (let ((.def_599 (and A2 .def_598))) (let ((.def_600 (or .def_599 .def_595))) (let ((.def_601 (not .def_600))) (let ((.def_602 (and .def_601 .def_592))) (let ((.def_603 (or .def_602 .def_587))) (let ((.def_604 (or .def_22 .def_22))) (let ((.def_605 (not .def_604))) (let ((.def_606 (< .def_4 (- 1)))) (let ((.def_607 (not .def_606))) (let ((.def_608 (+ .def_229 .def_121))) (let ((.def_609 (< .def_608 (- 1)))) (let ((.def_610 (not .def_609))) (let ((.def_611 (and .def_610 .def_607))) (let ((.def_612 (not .def_611))) (let ((.def_613 (or .def_612 .def_605))) (let ((.def_614 (and A7 A5))) (let ((.def_615 (not .def_614))) (let ((.def_616 (and .def_12 A5))) (let ((.def_617 (and .def_616 .def_615))) (let ((.def_618 (or .def_617 .def_613))) (let ((.def_619 (not .def_618))) (let ((.def_620 (+ .def_82 .def_4))) (let ((.def_621 (< .def_620 1))) (let ((.def_622 (not .def_621))) (let ((.def_623 (or .def_622 .def_0))) (let ((.def_624 (not .def_623))) (let ((.def_625 (and .def_306 .def_161))) (let ((.def_626 (not .def_625))) (let ((.def_627 (or .def_626 .def_624))) (let ((.def_628 (< .def_5 1))) (let ((.def_629 (not .def_628))) (let ((.def_630 (or A9 .def_629))) (let ((.def_631 (or .def_14 .def_517))) (let ((.def_632 (not .def_631))) (let ((.def_633 (or .def_632 .def_630))) (let ((.def_634 (not .def_633))) (let ((.def_635 (or .def_634 .def_627))) (let ((.def_636 (not .def_635))) (let ((.def_637 (and .def_636 .def_619))) (let ((.def_638 (not .def_637))) (let ((.def_639 (and .def_638 .def_603))) (let ((.def_640 (not .def_639))) (let ((.def_641 (or .def_640 .def_571))) (let ((.def_642 (not .def_641))) (let ((.def_643 (and .def_642 .def_496))) (let ((.def_644 (not .def_643))) (let ((.def_645 (= .def_644 .def_354))) (let ((.def_646 (<= x9 1))) (let ((.def_647 (<= 0 x9))) (let ((.def_648 (<= x8 1))) (let ((.def_649 (<= 0 x8))) (let ((.def_650 (<= x7 1))) (let ((.def_651 (<= 0 x7))) (let ((.def_652 (<= x6 1))) (let ((.def_653 (<= 0 x6))) (let ((.def_654 (<= x5 1))) (let ((.def_655 (<= 0 x5))) (let ((.def_656 (<= x4 1))) (let ((.def_657 (<= 0 x4))) (let ((.def_658 (<= x3 1))) (let ((.def_659 (<= 0 x3))) (let ((.def_660 (<= x2 1))) (let ((.def_661 (<= 0 x2))) (let ((.def_662 (<= x1 1))) (let ((.def_663 (<= 0 x1))) (let ((.def_664 (<= x0 1))) (let ((.def_665 (<= 0 x0))) (let ((.def_666 (and .def_665 .def_664 .def_663 .def_662 .def_661 .def_660 .def_659 .def_658 .def_657 .def_656 .def_655 .def_654 .def_653 .def_652 .def_651 .def_650 .def_649 .def_648 .def_647 .def_646 .def_645))) .def_666))))))))))))))))))))))))))))))))))))))))))))))))))))))))))))))))))))))))))))))))))))))))))))))))))))))))))))))))))))))))))))))))))))))))))))))))))))))))))))))))))))))))))))))))))))))))))))))))))))))))))))))))))))))))))))))))))))))))))))))))))))))))))))))))))))))))))))))))))))))))))))))))))))))))))))))))))))))))))))))))))))))))))))))))))))))))))))))))))))))))))))))))))))))))))))))))))))))))))))))))))))))))))))))))))))))))))))))))))))))))))))))))))))))))))))))))))))))))))))))))))))))))))))))))))))))))))))))))))))))))))))))))))))))))))))))))))))))))))))))))))))))))))))))))))))))))))))))))))))))))))))))))))))))))))))))))))))))))))))))))))))))))))))))))))))))))))))
(check-sat)
